p cnf 229 419
e 1 2 3 4 5 6 7 8 9 10 11 12 13 14 15 16 17 18 19 20 21 22 23 24 25 26 27 28 29 30 31 32 33 34 35 36 37 38 39 40 41 42 43 44 45 46 47 48 49 50 51 52 53 54 55 56 57 58 59 60 61 62 63 64 65 66 67 68 69 70 71 72 73 74 75 76 77 78 79 80 81 82 83 84 85 86 87 88 89 90 91 92 93 94 95 96 97 98 99 100 101 102 103 104 105 106 107 108 109 110 111 112 113 114 115 116 117 118 119 120 121 122 123 124 125 126 127 128 129 130 131 132 133 134 135 136 137 138 139 140 141 142 143 144 145 146 147 148 149 150 151 152 153 154 155 156 157 158 159 160 161 162 163 164 165 166 167 168 169 170 171 172 173 174 175 176 177 178 179 180 181 182 183 184 185 186 187 188 189 190 191 192 193 194 195 196 197 198 199 200 201 202 203 204 205 206 207 208 209 210 211 212 213 214 215 216 217 218 219 220 221 222 223 224 225 226 227 228 229 0
-34 0
-185 0
-179 0
-44 0
-53 0
-22 0
-20 0
-108 0
152 0
-19 0
-114 0
-117 0
141 0
150 0
-31 0
-90 0
-102 0
-120 0
-176 0
-189 0
-26 0
151 0
146 0
-195 0
-42 0
-43 0
-32 0
-33 0
148 0
-30 0
-12 0
-15 0
-27 0
-8 0
153 0
149 0
-180 0
-41 0
-13 0
-16 0
137 0
-182 0
-56 0
-52 0
-84 0
-105 0
-29 0
-37 0
-51 0
-190 0
-25 0
-39 0
-48 0
-23 0
144 0
-55 0
-81 0
-126 0
-188 0
-5 0
-21 0
-46 0
-187 0
-186 0
-35 0
-28 0
-57 0
-58 0
-93 0
155 0
138 0
-194 0
-87 0
139 0
143 0
-38 0
-10 0
-18 0
-193 0
-2 0
-14 0
-40 0
196 0
-135 0
142 0
-96 0
-177 0
145 0
-191 0
-178 0
-6 0
-24 0
-49 0
-9 0
-54 0
-111 0
-132 0
-183 0
1 0
-11 0
-50 0
-184 0
136 0
-47 0
-4 0
-129 0
-7 0
-45 0
-99 0
-192 0
-156 0
154 0
-3 0
-123 0
140 0
-229 0
-181 0
-17 0
-36 0
147 0
-79 80 0
79 -80 0
-82 83 0
82 -83 0
-85 86 0
85 -86 0
-88 89 0
88 -89 0
-91 92 0
91 -92 0
-94 95 0
94 -95 0
-97 98 0
97 -98 0
-100 101 0
100 -101 0
-103 104 0
103 -104 0
-106 107 0
106 -107 0
-109 110 0
109 -110 0
-112 113 0
112 -113 0
-115 116 0
115 -116 0
-118 119 0
118 -119 0
-121 122 0
121 -122 0
-124 125 0
124 -125 0
-127 128 0
127 -128 0
-130 131 0
130 -131 0
-133 134 0
133 -134 0
59 -80 0
59 -83 0
59 -86 0
59 -89 0
59 -92 0
59 -95 0
59 -98 0
59 -101 0
59 -104 0
59 -107 0
59 -110 0
59 -113 0
59 -116 0
59 -119 0
59 -122 0
59 -125 0
59 -128 0
59 -131 0
59 -134 0
60 -80 0
61 -83 0
62 -86 0
63 -89 0
64 -92 0
65 -95 0
66 -98 0
67 -101 0
68 -104 0
69 -107 0
70 -110 0
71 -113 0
72 -116 0
73 -119 0
74 -122 0
75 -125 0
76 -128 0
77 -131 0
78 -134 0
197 -80 -83 0
-197 80 0
-197 83 0
198 -92 -95 -98 0
-198 92 0
-198 95 0
-198 98 0
199 -110 -113 0
-199 110 0
-199 113 0
200 -116 -119 -122 0
-200 116 0
-200 119 0
-200 122 0
201 -131 -134 0
-201 131 0
-201 134 0
202 -86 -92 0
-202 86 0
-202 92 0
203 -116 -125 -131 0
-203 116 0
-203 125 0
-203 131 0
204 -80 -89 -95 0
-204 80 0
-204 89 0
-204 95 0
205 -101 -107 0
-205 101 0
-205 107 0
206 -122 -128 0
-206 122 0
-206 128 0
207 -89 -98 0
-207 89 0
-207 98 0
208 -83 -89 -92 0
-208 83 0
-208 89 0
-208 92 0
209 -107 -110 0
-209 107 0
-209 110 0
210 -80 -101 -119 0
-210 80 0
-210 101 0
-210 119 0
211 -83 -122 0
-211 83 0
-211 122 0
212 -86 -104 -125 0
-212 86 0
-212 104 0
-212 125 0
213 -92 -110 -131 0
-213 92 0
-213 110 0
-213 131 0
214 -95 -134 0
-214 95 0
-214 134 0
215 -98 -113 0
-215 98 0
-215 113 0
216 -104 -131 0
-216 104 0
-216 131 0
217 -80 -107 -134 0
-217 80 0
-217 107 0
-217 134 0
218 -92 -104 -116 0
-218 92 0
-218 104 0
-218 116 0
219 -95 -107 -119 0
-219 95 0
-219 107 0
-219 119 0
220 -101 -122 0
-220 101 0
-220 122 0
221 -86 -107 -128 0
-221 86 0
-221 107 0
-221 128 0
222 -92 0
-222 92 0
223 -83 -101 -116 0
-223 83 0
-223 101 0
-223 116 0
224 -98 -131 0
-224 98 0
-224 131 0
225 -107 0
-225 107 0
226 -83 -107 0
-226 83 0
-226 107 0
227 -92 -107 -122 0
-227 92 0
-227 107 0
-227 122 0
228 -98 -107 -116 0
-228 98 0
-228 107 0
-228 116 0
197 198 199 200 201 202 203 204 205 206 207 208 209 210 211 212 213 214 215 216 217 218 219 220 221 222 223 224 225 226 227 228 0
-60 157 0
60 -157 0
-61 158 0
-157 158 0
61 -158 157 0
-61 -157 0
-62 159 0
-158 159 0
62 -159 158 0
-62 -158 0
-63 160 0
-159 160 0
63 -160 159 0
-63 -159 0
-64 161 0
-160 161 0
64 -161 160 0
-64 -160 0
-65 162 0
-161 162 0
65 -162 161 0
-65 -161 0
-66 163 0
-162 163 0
66 -163 162 0
-66 -162 0
-67 164 0
-163 164 0
67 -164 163 0
-67 -163 0
-68 165 0
-164 165 0
68 -165 164 0
-68 -164 0
-69 166 0
-165 166 0
69 -166 165 0
-69 -165 0
-70 167 0
-166 167 0
70 -167 166 0
-70 -166 0
-71 168 0
-167 168 0
71 -168 167 0
-71 -167 0
-72 169 0
-168 169 0
72 -169 168 0
-72 -168 0
-73 170 0
-169 170 0
73 -170 169 0
-73 -169 0
-74 171 0
-170 171 0
74 -171 170 0
-74 -170 0
-75 172 0
-171 172 0
75 -172 171 0
-75 -171 0
-76 173 0
-172 173 0
76 -173 172 0
-76 -172 0
-77 174 0
-173 174 0
77 -174 173 0
-77 -173 0
-78 175 0
-174 175 0
78 -175 174 0
-78 -174 0
-59 175 0
-60 80 0
-60 59 0
-61 83 0
-61 59 0
-62 86 0
-62 59 0
-63 89 0
-63 59 0
-64 92 0
-64 59 0
-65 95 0
-65 59 0
-66 98 0
-66 59 0
-67 101 0
-67 59 0
-68 104 0
-68 59 0
-69 107 0
-69 59 0
-70 110 0
-70 59 0
-71 113 0
-71 59 0
-72 116 0
-72 59 0
-73 119 0
-73 59 0
-74 122 0
-74 59 0
-75 125 0
-75 59 0
-76 128 0
-76 59 0
-77 131 0
-77 59 0
-78 134 0
-78 59 0
